(set-info :smt-lib-version 2.6)
(set-logic QF_NIA)
(set-info :source |
Generated by: Cristina Borralleras, Daniel Larraz, Albert Oliveras, Enric Rodriguez-Carbonell, Albert Rubio
Generated on: 2017-04-27
Generator: VeryMax
Application: Termination proving
Target solver: barcelogic
|)
(set-info :license "https://creativecommons.org/licenses/by/4.0/")
(set-info :category "industrial")
(set-info :status unknown)
(declare-fun Nl5arg11 () Int)
(declare-fun Nl5arg21 () Int)
(declare-fun Nl5arg31 () Int)
(declare-fun Nl5arg41 () Int)
(declare-fun Nl5arg12 () Int)
(declare-fun Nl5arg22 () Int)
(declare-fun Nl5arg32 () Int)
(declare-fun Nl5arg42 () Int)
(declare-fun lam0n0 () Int)
(declare-fun lam0n1 () Int)
(declare-fun lam0n2 () Int)
(declare-fun lam0n3 () Int)
(declare-fun lam0n4 () Int)
(declare-fun lam0n5 () Int)
(declare-fun lam0n6 () Int)
(declare-fun lam0n7 () Int)
(declare-fun lam0n8 () Int)
(declare-fun lam0n9 () Int)
(declare-fun lam0n10 () Int)
(declare-fun lam0n11 () Int)
(declare-fun lam0n12 () Int)
(declare-fun lam0n13 () Int)
(declare-fun lam0n14 () Int)
(declare-fun lam0n15 () Int)
(declare-fun lam0n16 () Int)
(declare-fun Nl5CT1 () Int)
(declare-fun Nl5CT2 () Int)
(declare-fun lam1n0 () Int)
(declare-fun lam1n1 () Int)
(declare-fun lam1n2 () Int)
(declare-fun lam1n3 () Int)
(declare-fun lam1n4 () Int)
(declare-fun lam1n5 () Int)
(declare-fun lam1n6 () Int)
(declare-fun lam1n7 () Int)
(declare-fun lam1n8 () Int)
(declare-fun lam1n9 () Int)
(declare-fun lam1n10 () Int)
(declare-fun lam1n11 () Int)
(declare-fun lam1n12 () Int)
(declare-fun lam1n13 () Int)
(declare-fun lam1n14 () Int)
(declare-fun lam1n15 () Int)
(declare-fun lam1n16 () Int)
(declare-fun lam2n0 () Int)
(declare-fun lam2n1 () Int)
(declare-fun lam2n2 () Int)
(declare-fun lam2n3 () Int)
(declare-fun lam2n4 () Int)
(declare-fun lam2n5 () Int)
(declare-fun lam2n6 () Int)
(declare-fun lam2n7 () Int)
(declare-fun lam2n8 () Int)
(declare-fun lam2n9 () Int)
(declare-fun lam2n10 () Int)
(declare-fun lam2n11 () Int)
(declare-fun lam2n12 () Int)
(declare-fun lam2n13 () Int)
(declare-fun lam2n14 () Int)
(declare-fun lam2n15 () Int)
(declare-fun lam2n16 () Int)
(declare-fun lam3n0 () Int)
(declare-fun lam3n1 () Int)
(declare-fun lam3n2 () Int)
(declare-fun lam3n3 () Int)
(declare-fun lam3n4 () Int)
(declare-fun lam3n5 () Int)
(declare-fun lam3n6 () Int)
(declare-fun lam3n7 () Int)
(declare-fun lam3n8 () Int)
(declare-fun lam3n9 () Int)
(declare-fun lam3n10 () Int)
(declare-fun lam3n11 () Int)
(declare-fun lam3n12 () Int)
(declare-fun lam3n13 () Int)
(declare-fun lam3n14 () Int)
(declare-fun lam3n15 () Int)
(declare-fun lam4n0 () Int)
(declare-fun lam4n1 () Int)
(declare-fun lam4n2 () Int)
(declare-fun lam4n3 () Int)
(declare-fun lam4n4 () Int)
(declare-fun lam4n5 () Int)
(declare-fun lam4n6 () Int)
(declare-fun lam4n7 () Int)
(declare-fun lam4n8 () Int)
(declare-fun lam4n9 () Int)
(declare-fun lam4n10 () Int)
(declare-fun lam4n11 () Int)
(declare-fun lam4n12 () Int)
(declare-fun lam4n13 () Int)
(declare-fun lam4n14 () Int)
(declare-fun lam4n15 () Int)
(declare-fun lam5n0 () Int)
(declare-fun lam5n1 () Int)
(declare-fun lam5n2 () Int)
(declare-fun lam5n3 () Int)
(declare-fun lam5n4 () Int)
(declare-fun lam5n5 () Int)
(declare-fun lam5n6 () Int)
(declare-fun lam5n7 () Int)
(declare-fun lam5n8 () Int)
(declare-fun lam5n9 () Int)
(declare-fun lam5n10 () Int)
(declare-fun lam5n11 () Int)
(declare-fun lam5n12 () Int)
(declare-fun lam5n13 () Int)
(declare-fun lam5n14 () Int)
(declare-fun lam5n15 () Int)
(declare-fun lam6n0 () Int)
(declare-fun lam6n1 () Int)
(declare-fun lam6n2 () Int)
(declare-fun lam6n3 () Int)
(declare-fun lam6n4 () Int)
(declare-fun lam6n5 () Int)
(declare-fun lam6n6 () Int)
(declare-fun lam6n7 () Int)
(declare-fun lam6n8 () Int)
(declare-fun lam6n9 () Int)
(declare-fun lam6n10 () Int)
(declare-fun lam6n11 () Int)
(declare-fun lam6n12 () Int)
(declare-fun lam6n13 () Int)
(declare-fun lam6n14 () Int)
(declare-fun lam6n15 () Int)
(declare-fun lam6n16 () Int)
(declare-fun lam6n17 () Int)
(declare-fun lam6n18 () Int)
(declare-fun lam6n19 () Int)
(declare-fun lam6n20 () Int)
(declare-fun lam6n21 () Int)
(declare-fun lam6n22 () Int)
(declare-fun lam6n23 () Int)
(declare-fun lam7n0 () Int)
(declare-fun lam7n1 () Int)
(declare-fun lam7n2 () Int)
(declare-fun lam7n3 () Int)
(declare-fun lam7n4 () Int)
(declare-fun lam7n5 () Int)
(declare-fun lam7n6 () Int)
(declare-fun lam7n7 () Int)
(declare-fun lam7n8 () Int)
(declare-fun lam7n9 () Int)
(declare-fun lam7n10 () Int)
(declare-fun lam7n11 () Int)
(declare-fun lam7n12 () Int)
(declare-fun lam7n13 () Int)
(declare-fun lam7n14 () Int)
(declare-fun lam7n15 () Int)
(declare-fun lam7n16 () Int)
(declare-fun lam7n17 () Int)
(declare-fun lam7n18 () Int)
(declare-fun lam7n19 () Int)
(declare-fun lam7n20 () Int)
(declare-fun lam7n21 () Int)
(declare-fun lam7n22 () Int)
(declare-fun lam7n23 () Int)
(declare-fun lam8n0 () Int)
(declare-fun lam8n1 () Int)
(declare-fun lam8n2 () Int)
(declare-fun lam8n3 () Int)
(declare-fun lam8n4 () Int)
(declare-fun lam8n5 () Int)
(declare-fun lam8n6 () Int)
(declare-fun lam8n7 () Int)
(declare-fun lam8n8 () Int)
(declare-fun lam8n9 () Int)
(declare-fun lam8n10 () Int)
(declare-fun lam8n11 () Int)
(declare-fun lam8n12 () Int)
(declare-fun lam8n13 () Int)
(declare-fun lam8n14 () Int)
(declare-fun lam8n15 () Int)
(declare-fun lam8n16 () Int)
(declare-fun lam8n17 () Int)
(declare-fun lam8n18 () Int)
(declare-fun lam8n19 () Int)
(declare-fun lam8n20 () Int)
(declare-fun lam8n21 () Int)
(declare-fun lam8n22 () Int)
(declare-fun lam9n0 () Int)
(declare-fun lam9n1 () Int)
(declare-fun lam9n2 () Int)
(declare-fun lam9n3 () Int)
(declare-fun lam9n4 () Int)
(declare-fun lam9n5 () Int)
(declare-fun lam9n6 () Int)
(declare-fun lam9n7 () Int)
(declare-fun lam9n8 () Int)
(declare-fun lam9n9 () Int)
(declare-fun lam9n10 () Int)
(declare-fun lam9n11 () Int)
(declare-fun lam9n12 () Int)
(declare-fun lam9n13 () Int)
(declare-fun lam9n14 () Int)
(declare-fun lam9n15 () Int)
(declare-fun lam9n16 () Int)
(declare-fun lam9n17 () Int)
(declare-fun lam9n18 () Int)
(declare-fun lam9n19 () Int)
(declare-fun lam9n20 () Int)
(declare-fun lam9n21 () Int)
(declare-fun lam9n22 () Int)
(declare-fun lam10n0 () Int)
(declare-fun lam10n1 () Int)
(declare-fun lam10n2 () Int)
(declare-fun lam10n3 () Int)
(declare-fun lam10n4 () Int)
(declare-fun lam10n5 () Int)
(declare-fun lam10n6 () Int)
(declare-fun lam10n7 () Int)
(declare-fun lam10n8 () Int)
(declare-fun lam10n9 () Int)
(declare-fun lam10n10 () Int)
(declare-fun lam10n11 () Int)
(declare-fun lam10n12 () Int)
(declare-fun lam10n13 () Int)
(declare-fun lam10n14 () Int)
(declare-fun lam10n15 () Int)
(declare-fun lam10n16 () Int)
(declare-fun lam10n17 () Int)
(declare-fun lam10n18 () Int)
(declare-fun lam10n19 () Int)
(declare-fun lam10n20 () Int)
(declare-fun lam10n21 () Int)
(declare-fun lam10n22 () Int)
(declare-fun lam10n23 () Int)
(declare-fun lam11n0 () Int)
(declare-fun lam11n1 () Int)
(declare-fun lam11n2 () Int)
(declare-fun lam11n3 () Int)
(declare-fun lam11n4 () Int)
(declare-fun lam11n5 () Int)
(declare-fun lam11n6 () Int)
(declare-fun lam11n7 () Int)
(declare-fun lam11n8 () Int)
(declare-fun lam11n9 () Int)
(declare-fun lam11n10 () Int)
(declare-fun lam11n11 () Int)
(declare-fun lam11n12 () Int)
(declare-fun lam11n13 () Int)
(declare-fun lam11n14 () Int)
(declare-fun lam11n15 () Int)
(declare-fun lam11n16 () Int)
(declare-fun lam11n17 () Int)
(declare-fun lam11n18 () Int)
(declare-fun lam11n19 () Int)
(declare-fun lam11n20 () Int)
(declare-fun lam11n21 () Int)
(declare-fun lam11n22 () Int)
(declare-fun lam11n23 () Int)
(declare-fun lam12n0 () Int)
(declare-fun lam12n1 () Int)
(declare-fun lam12n2 () Int)
(declare-fun lam12n3 () Int)
(declare-fun lam12n4 () Int)
(declare-fun lam12n5 () Int)
(declare-fun lam12n6 () Int)
(declare-fun lam12n7 () Int)
(declare-fun lam12n8 () Int)
(declare-fun lam12n9 () Int)
(declare-fun lam12n10 () Int)
(declare-fun lam12n11 () Int)
(declare-fun lam12n12 () Int)
(declare-fun lam12n13 () Int)
(declare-fun lam12n14 () Int)
(declare-fun lam12n15 () Int)
(declare-fun lam12n16 () Int)
(declare-fun lam12n17 () Int)
(declare-fun lam12n18 () Int)
(declare-fun lam12n19 () Int)
(declare-fun lam12n20 () Int)
(declare-fun lam12n21 () Int)
(declare-fun lam12n22 () Int)
(declare-fun lam13n0 () Int)
(declare-fun lam13n1 () Int)
(declare-fun lam13n2 () Int)
(declare-fun lam13n3 () Int)
(declare-fun lam13n4 () Int)
(declare-fun lam13n5 () Int)
(declare-fun lam13n6 () Int)
(declare-fun lam13n7 () Int)
(declare-fun lam13n8 () Int)
(declare-fun lam13n9 () Int)
(declare-fun lam13n10 () Int)
(declare-fun lam13n11 () Int)
(declare-fun lam13n12 () Int)
(declare-fun lam13n13 () Int)
(declare-fun lam13n14 () Int)
(declare-fun lam13n15 () Int)
(declare-fun lam13n16 () Int)
(declare-fun lam13n17 () Int)
(declare-fun lam13n18 () Int)
(declare-fun lam13n19 () Int)
(declare-fun lam13n20 () Int)
(declare-fun lam13n21 () Int)
(declare-fun lam13n22 () Int)
(declare-fun undef2 () Int)
(declare-fun undef12 () Int)
(declare-fun undef13 () Int)
(declare-fun undef14 () Int)
(declare-fun undef41 () Int)
(declare-fun undef38 () Int)
(declare-fun undef53 () Int)
(declare-fun undef1 () Int)
(declare-fun undef6 () Int)
(declare-fun undef39 () Int)
(declare-fun undef40 () Int)
(declare-fun undef16 () Int)
(declare-fun undef54 () Int)
(declare-fun undef17 () Int)
(declare-fun undef18 () Int)
(declare-fun undef19 () Int)
(declare-fun undef22 () Int)
(declare-fun undef21 () Int)
(declare-fun undef8 () Int)
(declare-fun undef7 () Int)
(declare-fun lam17n0 () Int)
(declare-fun lam17n1 () Int)
(declare-fun lam17n2 () Int)
(declare-fun lam17n3 () Int)
(declare-fun lam17n4 () Int)
(declare-fun lam17n5 () Int)
(declare-fun lam17n6 () Int)
(declare-fun lam17n7 () Int)
(declare-fun lam17n8 () Int)
(declare-fun lam17n9 () Int)
(declare-fun lam17n10 () Int)
(declare-fun lam17n11 () Int)
(declare-fun lam17n12 () Int)
(declare-fun lam17n13 () Int)
(declare-fun lam17n14 () Int)
(declare-fun lam17n15 () Int)
(declare-fun lam17n16 () Int)
(declare-fun RFN1_CT () Int)
(declare-fun RFN1_arg1 () Int)
(declare-fun RFN1_arg2 () Int)
(declare-fun RFN1_arg3 () Int)
(declare-fun RFN1_arg4 () Int)
(declare-fun lam15n0 () Int)
(declare-fun lam15n1 () Int)
(declare-fun lam15n2 () Int)
(declare-fun lam15n3 () Int)
(declare-fun lam15n4 () Int)
(declare-fun lam15n5 () Int)
(declare-fun lam15n6 () Int)
(declare-fun lam15n7 () Int)
(declare-fun lam15n8 () Int)
(declare-fun lam15n9 () Int)
(declare-fun lam15n10 () Int)
(declare-fun lam15n11 () Int)
(declare-fun lam15n12 () Int)
(declare-fun lam15n13 () Int)
(declare-fun lam15n14 () Int)
(declare-fun lam15n15 () Int)
(declare-fun lam15n16 () Int)
(declare-fun lam16n0 () Int)
(declare-fun lam16n1 () Int)
(declare-fun lam16n2 () Int)
(declare-fun lam16n3 () Int)
(declare-fun lam16n4 () Int)
(declare-fun lam16n5 () Int)
(declare-fun lam16n6 () Int)
(declare-fun lam16n7 () Int)
(declare-fun lam16n8 () Int)
(declare-fun lam16n9 () Int)
(declare-fun lam16n10 () Int)
(declare-fun lam16n11 () Int)
(declare-fun lam16n12 () Int)
(declare-fun lam16n13 () Int)
(declare-fun lam16n14 () Int)
(declare-fun lam16n15 () Int)
(declare-fun lam16n16 () Int)
(declare-fun lam14n0 () Int)
(declare-fun lam14n1 () Int)
(declare-fun lam14n2 () Int)
(declare-fun lam14n3 () Int)
(declare-fun lam14n4 () Int)
(declare-fun lam14n5 () Int)
(declare-fun lam14n6 () Int)
(declare-fun lam14n7 () Int)
(declare-fun lam14n8 () Int)
(declare-fun lam14n9 () Int)
(declare-fun lam14n10 () Int)
(declare-fun lam14n11 () Int)
(declare-fun lam14n12 () Int)
(declare-fun lam14n13 () Int)
(declare-fun lam14n14 () Int)
(declare-fun lam14n15 () Int)
(declare-fun lam14n16 () Int)
(assert ( and ( <= ( - 1 ) Nl5arg11 ) ( <= Nl5arg11 1 ) ( <= ( - 1 ) Nl5arg21 ) ( <= Nl5arg21 1 ) ( <= ( - 1 ) Nl5arg31 ) ( <= Nl5arg31 1 ) ( <= ( - 1 ) Nl5arg41 ) ( <= Nl5arg41 1 ) ( <= ( - 1 ) Nl5arg12 ) ( <= Nl5arg12 1 ) ( <= ( - 1 ) Nl5arg22 ) ( <= Nl5arg22 1 ) ( <= ( - 1 ) Nl5arg32 ) ( <= Nl5arg32 1 ) ( <= ( - 1 ) Nl5arg42 ) ( <= Nl5arg42 1 ) ))
(assert ( or ( and ( >= lam0n0 0 ) ( >= lam0n1 0 ) ( >= lam0n2 0 ) ( >= lam0n3 0 ) ( >= lam0n4 0 ) ( >= lam0n5 0 ) ( >= lam0n6 0 ) ( >= lam0n7 0 ) ( >= lam0n8 0 ) ( >= lam0n9 0 ) ( >= lam0n10 0 ) ( >= lam0n11 0 ) ( >= lam0n12 0 ) ( >= lam0n13 0 ) ( >= lam0n14 0 ) ( >= lam0n15 0 ) ( >= lam0n16 0 ) ( > ( + ( * 1 lam0n0 ) ( * 1 lam0n1 ) ( * 1 lam0n2 ) ( * 1 lam0n3 ) ( * 2 lam0n8 ) ( * 2 lam0n9 ) ( * ( - 2 ) lam0n10 ) ( * ( - 2 ) lam0n11 ) ( * 3 lam0n12 ) ( * 3 lam0n13 ) ( * 3 lam0n14 ) ( * Nl5CT1 lam0n15 ) ( * Nl5CT2 lam0n16 ) ( - 1 ) ) 0 ) ( = ( + ( * ( - 1 ) lam0n0 ) ( * ( - 1 ) lam0n4 ) ( * Nl5arg11 lam0n15 ) ( * Nl5arg12 lam0n16 ) ) 0 ) ( = ( + ( * ( - 1 ) lam0n8 ) ( * Nl5arg21 lam0n15 ) ( * Nl5arg22 lam0n16 ) ) 0 ) ( = ( + ( * ( - 1 ) lam0n5 ) ( * ( - 1 ) lam0n6 ) ( * ( - 1 ) lam0n9 ) ( * ( - 1 ) lam0n12 ) ( * Nl5arg31 lam0n15 ) ( * Nl5arg32 lam0n16 ) ) 0 ) ( = ( + ( * ( - 1 ) lam0n1 ) ( * ( - 1 ) lam0n7 ) ( * ( - 1 ) lam0n10 ) ( * ( - 1 ) lam0n11 ) ( * Nl5arg41 lam0n15 ) ( * Nl5arg42 lam0n16 ) ) 0 ) ( = ( + ( * ( - 1 ) lam0n2 ) ( * 1 lam0n4 ) ) 0 ) ( = ( + ( * 1 lam0n5 ) ( * 1 lam0n10 ) ( * ( - 1 ) lam0n13 ) ) 0 ) ( = ( + ( * 1 lam0n6 ) ( * 1 lam0n11 ) ( * ( - 1 ) lam0n14 ) ) 0 ) ( = ( + ( * ( - 1 ) lam0n3 ) ( * 1 lam0n7 ) ( * 1 lam0n9 ) ) 0 ) ) ( and ( >= lam1n0 0 ) ( >= lam1n1 0 ) ( >= lam1n2 0 ) ( >= lam1n3 0 ) ( >= lam1n4 0 ) ( >= lam1n5 0 ) ( >= lam1n6 0 ) ( >= lam1n7 0 ) ( >= lam1n8 0 ) ( >= lam1n9 0 ) ( >= lam1n10 0 ) ( >= lam1n11 0 ) ( >= lam1n12 0 ) ( >= lam1n13 0 ) ( >= lam1n14 0 ) ( >= lam1n15 0 ) ( >= lam1n16 0 ) ( > ( + ( * 1 lam1n0 ) ( * 1 lam1n1 ) ( * 1 lam1n2 ) ( * 1 lam1n3 ) ( * 2 lam1n8 ) ( * 2 lam1n9 ) ( * ( - 2 ) lam1n10 ) ( * ( - 2 ) lam1n11 ) ( * 3 lam1n12 ) ( * 3 lam1n13 ) ( * 3 lam1n14 ) ( * Nl5CT1 lam1n15 ) ( * Nl5CT2 lam1n16 ) ( - 1 ( + ( + ( + ( + Nl5CT1 ( * Nl5arg11 0 ) ) ( * Nl5arg21 0 ) ) ( * Nl5arg31 0 ) ) ( * Nl5arg41 0 ) ) ) ) 0 ) ( = ( + ( * ( - 1 ) lam1n0 ) ( * ( - 1 ) lam1n4 ) ( * Nl5arg11 lam1n15 ) ( * Nl5arg12 lam1n16 ) ) 0 ) ( = ( + ( * ( - 1 ) lam1n8 ) ( * Nl5arg21 lam1n15 ) ( * Nl5arg22 lam1n16 ) ) 0 ) ( = ( + ( * ( - 1 ) lam1n5 ) ( * ( - 1 ) lam1n6 ) ( * ( - 1 ) lam1n9 ) ( * ( - 1 ) lam1n12 ) ( * Nl5arg31 lam1n15 ) ( * Nl5arg32 lam1n16 ) ) 0 ) ( = ( + ( * ( - 1 ) lam1n1 ) ( * ( - 1 ) lam1n7 ) ( * ( - 1 ) lam1n10 ) ( * ( - 1 ) lam1n11 ) ( * Nl5arg41 lam1n15 ) ( * Nl5arg42 lam1n16 ) ) 0 ) ( = ( + ( * ( - 1 ) lam1n2 ) ( * 1 lam1n4 ) ( - ( + 0 ( * Nl5arg11 1 ) ) ) ) 0 ) ( = ( + ( * 1 lam1n5 ) ( * 1 lam1n10 ) ( * ( - 1 ) lam1n13 ) ( - ( + 0 ( * Nl5arg21 1 ) ) ) ) 0 ) ( = ( + ( * 1 lam1n6 ) ( * 1 lam1n11 ) ( * ( - 1 ) lam1n14 ) ( - ( + 0 ( * Nl5arg31 1 ) ) ) ) 0 ) ( = ( + ( * ( - 1 ) lam1n3 ) ( * 1 lam1n7 ) ( * 1 lam1n9 ) ( - ( + 0 ( * Nl5arg41 1 ) ) ) ) 0 ) ) ))
(assert ( or ( and ( >= lam0n0 0 ) ( >= lam0n1 0 ) ( >= lam0n2 0 ) ( >= lam0n3 0 ) ( >= lam0n4 0 ) ( >= lam0n5 0 ) ( >= lam0n6 0 ) ( >= lam0n7 0 ) ( >= lam0n8 0 ) ( >= lam0n9 0 ) ( >= lam0n10 0 ) ( >= lam0n11 0 ) ( >= lam0n12 0 ) ( >= lam0n13 0 ) ( >= lam0n14 0 ) ( >= lam0n15 0 ) ( >= lam0n16 0 ) ( > ( + ( * 1 lam0n0 ) ( * 1 lam0n1 ) ( * 1 lam0n2 ) ( * 1 lam0n3 ) ( * 2 lam0n8 ) ( * 2 lam0n9 ) ( * ( - 2 ) lam0n10 ) ( * ( - 2 ) lam0n11 ) ( * 3 lam0n12 ) ( * 3 lam0n13 ) ( * 3 lam0n14 ) ( * Nl5CT1 lam0n15 ) ( * Nl5CT2 lam0n16 ) ( - 1 ) ) 0 ) ( = ( + ( * ( - 1 ) lam0n0 ) ( * ( - 1 ) lam0n4 ) ( * Nl5arg11 lam0n15 ) ( * Nl5arg12 lam0n16 ) ) 0 ) ( = ( + ( * ( - 1 ) lam0n8 ) ( * Nl5arg21 lam0n15 ) ( * Nl5arg22 lam0n16 ) ) 0 ) ( = ( + ( * ( - 1 ) lam0n5 ) ( * ( - 1 ) lam0n6 ) ( * ( - 1 ) lam0n9 ) ( * ( - 1 ) lam0n12 ) ( * Nl5arg31 lam0n15 ) ( * Nl5arg32 lam0n16 ) ) 0 ) ( = ( + ( * ( - 1 ) lam0n1 ) ( * ( - 1 ) lam0n7 ) ( * ( - 1 ) lam0n10 ) ( * ( - 1 ) lam0n11 ) ( * Nl5arg41 lam0n15 ) ( * Nl5arg42 lam0n16 ) ) 0 ) ( = ( + ( * ( - 1 ) lam0n2 ) ( * 1 lam0n4 ) ) 0 ) ( = ( + ( * 1 lam0n5 ) ( * 1 lam0n10 ) ( * ( - 1 ) lam0n13 ) ) 0 ) ( = ( + ( * 1 lam0n6 ) ( * 1 lam0n11 ) ( * ( - 1 ) lam0n14 ) ) 0 ) ( = ( + ( * ( - 1 ) lam0n3 ) ( * 1 lam0n7 ) ( * 1 lam0n9 ) ) 0 ) ) ( and ( >= lam2n0 0 ) ( >= lam2n1 0 ) ( >= lam2n2 0 ) ( >= lam2n3 0 ) ( >= lam2n4 0 ) ( >= lam2n5 0 ) ( >= lam2n6 0 ) ( >= lam2n7 0 ) ( >= lam2n8 0 ) ( >= lam2n9 0 ) ( >= lam2n10 0 ) ( >= lam2n11 0 ) ( >= lam2n12 0 ) ( >= lam2n13 0 ) ( >= lam2n14 0 ) ( >= lam2n15 0 ) ( >= lam2n16 0 ) ( > ( + ( * 1 lam2n0 ) ( * 1 lam2n1 ) ( * 1 lam2n2 ) ( * 1 lam2n3 ) ( * 2 lam2n8 ) ( * 2 lam2n9 ) ( * ( - 2 ) lam2n10 ) ( * ( - 2 ) lam2n11 ) ( * 3 lam2n12 ) ( * 3 lam2n13 ) ( * 3 lam2n14 ) ( * Nl5CT1 lam2n15 ) ( * Nl5CT2 lam2n16 ) ( - 1 ( + ( + ( + ( + Nl5CT2 ( * Nl5arg12 0 ) ) ( * Nl5arg22 0 ) ) ( * Nl5arg32 0 ) ) ( * Nl5arg42 0 ) ) ) ) 0 ) ( = ( + ( * ( - 1 ) lam2n0 ) ( * ( - 1 ) lam2n4 ) ( * Nl5arg11 lam2n15 ) ( * Nl5arg12 lam2n16 ) ) 0 ) ( = ( + ( * ( - 1 ) lam2n8 ) ( * Nl5arg21 lam2n15 ) ( * Nl5arg22 lam2n16 ) ) 0 ) ( = ( + ( * ( - 1 ) lam2n5 ) ( * ( - 1 ) lam2n6 ) ( * ( - 1 ) lam2n9 ) ( * ( - 1 ) lam2n12 ) ( * Nl5arg31 lam2n15 ) ( * Nl5arg32 lam2n16 ) ) 0 ) ( = ( + ( * ( - 1 ) lam2n1 ) ( * ( - 1 ) lam2n7 ) ( * ( - 1 ) lam2n10 ) ( * ( - 1 ) lam2n11 ) ( * Nl5arg41 lam2n15 ) ( * Nl5arg42 lam2n16 ) ) 0 ) ( = ( + ( * ( - 1 ) lam2n2 ) ( * 1 lam2n4 ) ( - ( + 0 ( * Nl5arg12 1 ) ) ) ) 0 ) ( = ( + ( * 1 lam2n5 ) ( * 1 lam2n10 ) ( * ( - 1 ) lam2n13 ) ( - ( + 0 ( * Nl5arg22 1 ) ) ) ) 0 ) ( = ( + ( * 1 lam2n6 ) ( * 1 lam2n11 ) ( * ( - 1 ) lam2n14 ) ( - ( + 0 ( * Nl5arg32 1 ) ) ) ) 0 ) ( = ( + ( * ( - 1 ) lam2n3 ) ( * 1 lam2n7 ) ( * 1 lam2n9 ) ( - ( + 0 ( * Nl5arg42 1 ) ) ) ) 0 ) ) ))
(assert ( or ( and ( >= lam3n0 0 ) ( >= lam3n1 0 ) ( >= lam3n2 0 ) ( >= lam3n3 0 ) ( >= lam3n4 0 ) ( >= lam3n5 0 ) ( >= lam3n6 0 ) ( >= lam3n7 0 ) ( >= lam3n8 0 ) ( >= lam3n9 0 ) ( >= lam3n10 0 ) ( >= lam3n11 0 ) ( >= lam3n12 0 ) ( >= lam3n13 0 ) ( >= lam3n14 0 ) ( >= lam3n15 0 ) ( > ( + ( * 1 lam3n0 ) ( * 1 lam3n1 ) ( * 1 lam3n2 ) ( * 1 lam3n3 ) ( * 2 lam3n6 ) ( * 2 lam3n7 ) ( * 2 lam3n8 ) ( * ( - 2 ) lam3n9 ) ( * 3 lam3n10 ) ( * 3 lam3n11 ) ( * 3 lam3n12 ) ( * 3 lam3n13 ) ( * Nl5CT1 lam3n14 ) ( * Nl5CT2 lam3n15 ) ( - 1 ) ) 0 ) ( = ( + ( * ( - 1 ) lam3n6 ) ( * ( - 1 ) lam3n10 ) ( * Nl5arg11 lam3n14 ) ( * Nl5arg12 lam3n15 ) ) 0 ) ( = ( + ( * ( - 1 ) lam3n7 ) ( * ( - 1 ) lam3n11 ) ( * Nl5arg21 lam3n14 ) ( * Nl5arg22 lam3n15 ) ) 0 ) ( = ( + ( * ( - 1 ) lam3n4 ) ( * ( - 1 ) lam3n8 ) ( * ( - 1 ) lam3n12 ) ( * Nl5arg31 lam3n14 ) ( * Nl5arg32 lam3n15 ) ) 0 ) ( = ( + ( * ( - 1 ) lam3n0 ) ( * ( - 1 ) lam3n5 ) ( * ( - 1 ) lam3n9 ) ( * Nl5arg41 lam3n14 ) ( * Nl5arg42 lam3n15 ) ) 0 ) ( = ( + ( * ( - 1 ) lam3n1 ) ( * 1 lam3n6 ) ) 0 ) ( = ( + ( * ( - 1 ) lam3n2 ) ( * 1 lam3n7 ) ) 0 ) ( = ( + ( * 1 lam3n4 ) ( * 1 lam3n9 ) ( * ( - 1 ) lam3n13 ) ) 0 ) ( = ( + ( * ( - 1 ) lam3n3 ) ( * 1 lam3n5 ) ( * 1 lam3n8 ) ) 0 ) ) ( and ( >= lam4n0 0 ) ( >= lam4n1 0 ) ( >= lam4n2 0 ) ( >= lam4n3 0 ) ( >= lam4n4 0 ) ( >= lam4n5 0 ) ( >= lam4n6 0 ) ( >= lam4n7 0 ) ( >= lam4n8 0 ) ( >= lam4n9 0 ) ( >= lam4n10 0 ) ( >= lam4n11 0 ) ( >= lam4n12 0 ) ( >= lam4n13 0 ) ( >= lam4n14 0 ) ( >= lam4n15 0 ) ( > ( + ( * 1 lam4n0 ) ( * 1 lam4n1 ) ( * 1 lam4n2 ) ( * 1 lam4n3 ) ( * 2 lam4n6 ) ( * 2 lam4n7 ) ( * 2 lam4n8 ) ( * ( - 2 ) lam4n9 ) ( * 3 lam4n10 ) ( * 3 lam4n11 ) ( * 3 lam4n12 ) ( * 3 lam4n13 ) ( * Nl5CT1 lam4n14 ) ( * Nl5CT2 lam4n15 ) ( - 1 ( + ( + ( + ( + Nl5CT1 ( * Nl5arg11 0 ) ) ( * Nl5arg21 0 ) ) ( * Nl5arg31 0 ) ) ( * Nl5arg41 0 ) ) ) ) 0 ) ( = ( + ( * ( - 1 ) lam4n6 ) ( * ( - 1 ) lam4n10 ) ( * Nl5arg11 lam4n14 ) ( * Nl5arg12 lam4n15 ) ) 0 ) ( = ( + ( * ( - 1 ) lam4n7 ) ( * ( - 1 ) lam4n11 ) ( * Nl5arg21 lam4n14 ) ( * Nl5arg22 lam4n15 ) ) 0 ) ( = ( + ( * ( - 1 ) lam4n4 ) ( * ( - 1 ) lam4n8 ) ( * ( - 1 ) lam4n12 ) ( * Nl5arg31 lam4n14 ) ( * Nl5arg32 lam4n15 ) ) 0 ) ( = ( + ( * ( - 1 ) lam4n0 ) ( * ( - 1 ) lam4n5 ) ( * ( - 1 ) lam4n9 ) ( * Nl5arg41 lam4n14 ) ( * Nl5arg42 lam4n15 ) ) 0 ) ( = ( + ( * ( - 1 ) lam4n1 ) ( * 1 lam4n6 ) ( - ( + 0 ( * Nl5arg11 1 ) ) ) ) 0 ) ( = ( + ( * ( - 1 ) lam4n2 ) ( * 1 lam4n7 ) ( - ( + 0 ( * Nl5arg21 1 ) ) ) ) 0 ) ( = ( + ( * 1 lam4n4 ) ( * 1 lam4n9 ) ( * ( - 1 ) lam4n13 ) ( - ( + 0 ( * Nl5arg31 1 ) ) ) ) 0 ) ( = ( + ( * ( - 1 ) lam4n3 ) ( * 1 lam4n5 ) ( * 1 lam4n8 ) ( - ( + 0 ( * Nl5arg41 1 ) ) ) ) 0 ) ) ))
(assert ( or ( and ( >= lam3n0 0 ) ( >= lam3n1 0 ) ( >= lam3n2 0 ) ( >= lam3n3 0 ) ( >= lam3n4 0 ) ( >= lam3n5 0 ) ( >= lam3n6 0 ) ( >= lam3n7 0 ) ( >= lam3n8 0 ) ( >= lam3n9 0 ) ( >= lam3n10 0 ) ( >= lam3n11 0 ) ( >= lam3n12 0 ) ( >= lam3n13 0 ) ( >= lam3n14 0 ) ( >= lam3n15 0 ) ( > ( + ( * 1 lam3n0 ) ( * 1 lam3n1 ) ( * 1 lam3n2 ) ( * 1 lam3n3 ) ( * 2 lam3n6 ) ( * 2 lam3n7 ) ( * 2 lam3n8 ) ( * ( - 2 ) lam3n9 ) ( * 3 lam3n10 ) ( * 3 lam3n11 ) ( * 3 lam3n12 ) ( * 3 lam3n13 ) ( * Nl5CT1 lam3n14 ) ( * Nl5CT2 lam3n15 ) ( - 1 ) ) 0 ) ( = ( + ( * ( - 1 ) lam3n6 ) ( * ( - 1 ) lam3n10 ) ( * Nl5arg11 lam3n14 ) ( * Nl5arg12 lam3n15 ) ) 0 ) ( = ( + ( * ( - 1 ) lam3n7 ) ( * ( - 1 ) lam3n11 ) ( * Nl5arg21 lam3n14 ) ( * Nl5arg22 lam3n15 ) ) 0 ) ( = ( + ( * ( - 1 ) lam3n4 ) ( * ( - 1 ) lam3n8 ) ( * ( - 1 ) lam3n12 ) ( * Nl5arg31 lam3n14 ) ( * Nl5arg32 lam3n15 ) ) 0 ) ( = ( + ( * ( - 1 ) lam3n0 ) ( * ( - 1 ) lam3n5 ) ( * ( - 1 ) lam3n9 ) ( * Nl5arg41 lam3n14 ) ( * Nl5arg42 lam3n15 ) ) 0 ) ( = ( + ( * ( - 1 ) lam3n1 ) ( * 1 lam3n6 ) ) 0 ) ( = ( + ( * ( - 1 ) lam3n2 ) ( * 1 lam3n7 ) ) 0 ) ( = ( + ( * 1 lam3n4 ) ( * 1 lam3n9 ) ( * ( - 1 ) lam3n13 ) ) 0 ) ( = ( + ( * ( - 1 ) lam3n3 ) ( * 1 lam3n5 ) ( * 1 lam3n8 ) ) 0 ) ) ( and ( >= lam5n0 0 ) ( >= lam5n1 0 ) ( >= lam5n2 0 ) ( >= lam5n3 0 ) ( >= lam5n4 0 ) ( >= lam5n5 0 ) ( >= lam5n6 0 ) ( >= lam5n7 0 ) ( >= lam5n8 0 ) ( >= lam5n9 0 ) ( >= lam5n10 0 ) ( >= lam5n11 0 ) ( >= lam5n12 0 ) ( >= lam5n13 0 ) ( >= lam5n14 0 ) ( >= lam5n15 0 ) ( > ( + ( * 1 lam5n0 ) ( * 1 lam5n1 ) ( * 1 lam5n2 ) ( * 1 lam5n3 ) ( * 2 lam5n6 ) ( * 2 lam5n7 ) ( * 2 lam5n8 ) ( * ( - 2 ) lam5n9 ) ( * 3 lam5n10 ) ( * 3 lam5n11 ) ( * 3 lam5n12 ) ( * 3 lam5n13 ) ( * Nl5CT1 lam5n14 ) ( * Nl5CT2 lam5n15 ) ( - 1 ( + ( + ( + ( + Nl5CT2 ( * Nl5arg12 0 ) ) ( * Nl5arg22 0 ) ) ( * Nl5arg32 0 ) ) ( * Nl5arg42 0 ) ) ) ) 0 ) ( = ( + ( * ( - 1 ) lam5n6 ) ( * ( - 1 ) lam5n10 ) ( * Nl5arg11 lam5n14 ) ( * Nl5arg12 lam5n15 ) ) 0 ) ( = ( + ( * ( - 1 ) lam5n7 ) ( * ( - 1 ) lam5n11 ) ( * Nl5arg21 lam5n14 ) ( * Nl5arg22 lam5n15 ) ) 0 ) ( = ( + ( * ( - 1 ) lam5n4 ) ( * ( - 1 ) lam5n8 ) ( * ( - 1 ) lam5n12 ) ( * Nl5arg31 lam5n14 ) ( * Nl5arg32 lam5n15 ) ) 0 ) ( = ( + ( * ( - 1 ) lam5n0 ) ( * ( - 1 ) lam5n5 ) ( * ( - 1 ) lam5n9 ) ( * Nl5arg41 lam5n14 ) ( * Nl5arg42 lam5n15 ) ) 0 ) ( = ( + ( * ( - 1 ) lam5n1 ) ( * 1 lam5n6 ) ( - ( + 0 ( * Nl5arg12 1 ) ) ) ) 0 ) ( = ( + ( * ( - 1 ) lam5n2 ) ( * 1 lam5n7 ) ( - ( + 0 ( * Nl5arg22 1 ) ) ) ) 0 ) ( = ( + ( * 1 lam5n4 ) ( * 1 lam5n9 ) ( * ( - 1 ) lam5n13 ) ( - ( + 0 ( * Nl5arg32 1 ) ) ) ) 0 ) ( = ( + ( * ( - 1 ) lam5n3 ) ( * 1 lam5n5 ) ( * 1 lam5n8 ) ( - ( + 0 ( * Nl5arg42 1 ) ) ) ) 0 ) ) ))
(assert ( or ( and ( <= ( + 1 ( * ( - 1 ) undef2 ) ) 0 ) ( <= ( + 1 ( * ( - 1 ) undef12 ) ) 0 ) ( <= ( + 1 ( * ( - 1 ) undef13 ) ) 0 ) ( <= ( + 1 ( * ( - 1 ) undef14 ) undef41 ) 0 ) ( <= ( + 1 ( * ( - 1 ) undef38 ) ) 0 ) ( not ( <= undef41 0 ) ) ( <= ( + 1 ( * ( - 1 ) undef53 ) ) 0 ) ( <= ( + ( - 1 ) ( * ( - 1 ) undef1 ) undef14 ) 0 ) ( <= ( + ( - 1 ) ( * ( - 1 ) undef2 ) undef14 ) 0 ) ( <= ( + ( * ( - 1 ) undef1 ) undef12 ) 0 ) ( <= ( + ( * ( - 1 ) undef1 ) undef13 ) 0 ) ( <= ( + undef2 ( * ( - 1 ) undef53 ) ) 0 ) ( <= ( + ( * ( - 1 ) undef2 ) undef12 ) 0 ) ( <= ( * ( - 1 ) undef6 ) 0 ) ( <= ( + ( * ( - 1 ) undef13 ) undef38 ) 0 ) ( <= ( + ( * ( - 1 ) undef14 ) undef39 ) 0 ) ( <= ( + ( * ( - 1 ) undef14 ) undef40 ) 0 ) ( <= ( + 2 ( * ( - 1 ) undef1 ) undef16 ) 0 ) ( <= ( + 2 ( * ( - 1 ) undef13 ) undef16 ) 0 ) ( <= ( + 2 ( * ( - 1 ) undef14 ) ) 0 ) ( not ( <= ( + ( - 1 ) undef39 ) 0 ) ) ( <= ( + 2 ( * ( - 1 ) undef54 ) ) 0 ) ( <= ( + 3 ( * ( - 1 ) undef1 ) ) 0 ) ( not ( <= ( + ( - 2 ) undef40 ) 0 ) ) ( <= ( + ( + ( + ( + ( + Nl5CT1 ( * Nl5arg11 0 ) ) ( * Nl5arg21 0 ) ) ( * Nl5arg31 0 ) ) ( * Nl5arg41 0 ) ) ( * ( + 0 ( * Nl5arg11 1 ) ) undef38 ) ( * ( + 0 ( * Nl5arg21 1 ) ) undef39 ) ( * ( + 0 ( * Nl5arg31 1 ) ) undef40 ) ( * ( + 0 ( * Nl5arg41 1 ) ) undef41 ) ) 0 ) ( <= ( + ( + ( + ( + ( + Nl5CT2 ( * Nl5arg12 0 ) ) ( * Nl5arg22 0 ) ) ( * Nl5arg32 0 ) ) ( * Nl5arg42 0 ) ) ( * ( + 0 ( * Nl5arg12 1 ) ) undef38 ) ( * ( + 0 ( * Nl5arg22 1 ) ) undef39 ) ( * ( + 0 ( * Nl5arg32 1 ) ) undef40 ) ( * ( + 0 ( * Nl5arg42 1 ) ) undef41 ) ) 0 ) ) ( and ( <= ( + 1 ( * ( - 1 ) undef2 ) ) 0 ) ( <= ( + 1 ( * ( - 1 ) undef17 ) ) 0 ) ( <= ( + 1 ( * ( - 1 ) undef18 ) ) 0 ) ( <= ( + 1 ( * ( - 1 ) undef19 ) undef41 ) 0 ) ( <= ( + 1 ( * ( - 1 ) undef38 ) ) 0 ) ( not ( <= undef41 0 ) ) ( <= ( + 1 ( * ( - 1 ) undef53 ) ) 0 ) ( <= ( + ( * ( - 1 ) undef1 ) undef17 ) 0 ) ( <= ( + ( * ( - 1 ) undef1 ) undef18 ) 0 ) ( <= ( + undef2 ( * ( - 1 ) undef53 ) ) 0 ) ( <= ( + ( * ( - 1 ) undef2 ) undef17 ) 0 ) ( <= ( * ( - 1 ) undef6 ) 0 ) ( <= ( + ( * ( - 1 ) undef18 ) undef38 ) 0 ) ( <= ( + ( * ( - 1 ) undef19 ) undef39 ) 0 ) ( <= ( + ( * ( - 1 ) undef19 ) undef40 ) 0 ) ( <= ( * ( - 1 ) undef22 ) 0 ) ( <= ( + 2 ( * ( - 1 ) undef1 ) undef21 ) 0 ) ( <= ( + 2 ( * ( - 1 ) undef18 ) undef21 ) 0 ) ( not ( <= ( + ( - 1 ) undef39 ) 0 ) ) ( <= ( + 2 ( * ( - 1 ) undef54 ) ) 0 ) ( <= ( + 3 ( * ( - 1 ) undef1 ) ) 0 ) ( <= ( + 3 ( * ( - 1 ) undef19 ) ) 0 ) ( not ( <= ( + ( - 2 ) undef40 ) 0 ) ) ( <= ( + ( + ( + ( + ( + Nl5CT1 ( * Nl5arg11 0 ) ) ( * Nl5arg21 0 ) ) ( * Nl5arg31 0 ) ) ( * Nl5arg41 0 ) ) ( * ( + 0 ( * Nl5arg11 1 ) ) undef38 ) ( * ( + 0 ( * Nl5arg21 1 ) ) undef39 ) ( * ( + 0 ( * Nl5arg31 1 ) ) undef40 ) ( * ( + 0 ( * Nl5arg41 1 ) ) undef41 ) ) 0 ) ( <= ( + ( + ( + ( + ( + Nl5CT2 ( * Nl5arg12 0 ) ) ( * Nl5arg22 0 ) ) ( * Nl5arg32 0 ) ) ( * Nl5arg42 0 ) ) ( * ( + 0 ( * Nl5arg12 1 ) ) undef38 ) ( * ( + 0 ( * Nl5arg22 1 ) ) undef39 ) ( * ( + 0 ( * Nl5arg32 1 ) ) undef40 ) ( * ( + 0 ( * Nl5arg42 1 ) ) undef41 ) ) 0 ) ) ( and ( <= ( + 1 ( * ( - 1 ) undef8 ) ) 0 ) ( <= ( + 1 ( * ( - 1 ) undef12 ) ) 0 ) ( <= ( + 1 ( * ( - 1 ) undef13 ) ) 0 ) ( <= ( + 1 ( * ( - 1 ) undef14 ) undef41 ) 0 ) ( <= ( + 1 ( * ( - 1 ) undef38 ) ) 0 ) ( not ( <= undef41 0 ) ) ( <= ( + 1 ( * ( - 1 ) undef53 ) ) 0 ) ( <= ( + ( - 1 ) undef7 ( * ( - 1 ) undef53 ) ) 0 ) ( <= ( + ( - 1 ) ( * ( - 1 ) undef7 ) undef14 ) 0 ) ( <= ( + ( - 1 ) ( * ( - 1 ) undef8 ) undef14 ) 0 ) ( <= ( + ( * ( - 1 ) undef7 ) undef12 ) 0 ) ( <= ( + ( * ( - 1 ) undef7 ) undef13 ) 0 ) ( <= ( + undef8 ( * ( - 1 ) undef53 ) ) 0 ) ( <= ( + ( * ( - 1 ) undef8 ) undef12 ) 0 ) ( <= ( + ( * ( - 1 ) undef13 ) undef38 ) 0 ) ( <= ( + ( * ( - 1 ) undef14 ) undef39 ) 0 ) ( <= ( + ( * ( - 1 ) undef14 ) undef40 ) 0 ) ( <= ( + 2 ( * ( - 1 ) undef7 ) ) 0 ) ( <= ( + 2 ( * ( - 1 ) undef7 ) undef16 ) 0 ) ( <= ( + 2 ( * ( - 1 ) undef13 ) undef16 ) 0 ) ( <= ( + 2 ( * ( - 1 ) undef14 ) ) 0 ) ( not ( <= ( + ( - 1 ) undef39 ) 0 ) ) ( <= ( + 2 ( * ( - 1 ) undef54 ) ) 0 ) ( not ( <= ( + ( - 2 ) undef40 ) 0 ) ) ( <= ( + ( + ( + ( + ( + Nl5CT1 ( * Nl5arg11 0 ) ) ( * Nl5arg21 0 ) ) ( * Nl5arg31 0 ) ) ( * Nl5arg41 0 ) ) ( * ( + 0 ( * Nl5arg11 1 ) ) undef38 ) ( * ( + 0 ( * Nl5arg21 1 ) ) undef39 ) ( * ( + 0 ( * Nl5arg31 1 ) ) undef40 ) ( * ( + 0 ( * Nl5arg41 1 ) ) undef41 ) ) 0 ) ( <= ( + ( + ( + ( + ( + Nl5CT2 ( * Nl5arg12 0 ) ) ( * Nl5arg22 0 ) ) ( * Nl5arg32 0 ) ) ( * Nl5arg42 0 ) ) ( * ( + 0 ( * Nl5arg12 1 ) ) undef38 ) ( * ( + 0 ( * Nl5arg22 1 ) ) undef39 ) ( * ( + 0 ( * Nl5arg32 1 ) ) undef40 ) ( * ( + 0 ( * Nl5arg42 1 ) ) undef41 ) ) 0 ) ) ( and ( <= ( + 1 ( * ( - 1 ) undef8 ) ) 0 ) ( <= ( + 1 ( * ( - 1 ) undef17 ) ) 0 ) ( <= ( + 1 ( * ( - 1 ) undef18 ) ) 0 ) ( <= ( + 1 ( * ( - 1 ) undef19 ) undef41 ) 0 ) ( <= ( + 1 ( * ( - 1 ) undef38 ) ) 0 ) ( not ( <= undef41 0 ) ) ( <= ( + 1 ( * ( - 1 ) undef53 ) ) 0 ) ( <= ( + ( - 1 ) undef7 ( * ( - 1 ) undef53 ) ) 0 ) ( <= ( + ( * ( - 1 ) undef7 ) undef17 ) 0 ) ( <= ( + ( * ( - 1 ) undef7 ) undef18 ) 0 ) ( <= ( + undef8 ( * ( - 1 ) undef53 ) ) 0 ) ( <= ( + ( * ( - 1 ) undef8 ) undef17 ) 0 ) ( <= ( + ( * ( - 1 ) undef18 ) undef38 ) 0 ) ( <= ( + ( * ( - 1 ) undef19 ) undef39 ) 0 ) ( <= ( + ( * ( - 1 ) undef19 ) undef40 ) 0 ) ( <= ( * ( - 1 ) undef22 ) 0 ) ( <= ( + 2 ( * ( - 1 ) undef7 ) ) 0 ) ( <= ( + 2 ( * ( - 1 ) undef7 ) undef21 ) 0 ) ( <= ( + 2 ( * ( - 1 ) undef18 ) undef21 ) 0 ) ( not ( <= ( + ( - 1 ) undef39 ) 0 ) ) ( <= ( + 2 ( * ( - 1 ) undef54 ) ) 0 ) ( <= ( + 3 ( * ( - 1 ) undef19 ) ) 0 ) ( not ( <= ( + ( - 2 ) undef40 ) 0 ) ) ( <= ( + ( + ( + ( + ( + Nl5CT1 ( * Nl5arg11 0 ) ) ( * Nl5arg21 0 ) ) ( * Nl5arg31 0 ) ) ( * Nl5arg41 0 ) ) ( * ( + 0 ( * Nl5arg11 1 ) ) undef38 ) ( * ( + 0 ( * Nl5arg21 1 ) ) undef39 ) ( * ( + 0 ( * Nl5arg31 1 ) ) undef40 ) ( * ( + 0 ( * Nl5arg41 1 ) ) undef41 ) ) 0 ) ( <= ( + ( + ( + ( + ( + Nl5CT2 ( * Nl5arg12 0 ) ) ( * Nl5arg22 0 ) ) ( * Nl5arg32 0 ) ) ( * Nl5arg42 0 ) ) ( * ( + 0 ( * Nl5arg12 1 ) ) undef38 ) ( * ( + 0 ( * Nl5arg22 1 ) ) undef39 ) ( * ( + 0 ( * Nl5arg32 1 ) ) undef40 ) ( * ( + 0 ( * Nl5arg42 1 ) ) undef41 ) ) 0 ) ) ))
(assert ( or ( and ( and ( >= lam17n0 0 ) ( >= lam17n1 0 ) ( >= lam17n2 0 ) ( >= lam17n3 0 ) ( >= lam17n4 0 ) ( >= lam17n5 0 ) ( >= lam17n6 0 ) ( >= lam17n7 0 ) ( >= lam17n8 0 ) ( >= lam17n9 0 ) ( >= lam17n10 0 ) ( >= lam17n11 0 ) ( >= lam17n12 0 ) ( >= lam17n13 0 ) ( >= lam17n14 0 ) ( >= lam17n15 0 ) ( >= lam17n16 0 ) ( > ( + ( * 1 lam17n0 ) ( * 1 lam17n1 ) ( * 1 lam17n2 ) ( * 1 lam17n3 ) ( * 2 lam17n8 ) ( * 2 lam17n9 ) ( * ( - 2 ) lam17n10 ) ( * ( - 2 ) lam17n11 ) ( * 3 lam17n12 ) ( * 3 lam17n13 ) ( * 3 lam17n14 ) ( * Nl5CT1 lam17n15 ) ( * Nl5CT2 lam17n16 ) ( - 1 ( - ( + ( + ( + ( + RFN1_CT ( * RFN1_arg1 0 ) ) ( * RFN1_arg2 0 ) ) ( * RFN1_arg3 0 ) ) ( * RFN1_arg4 0 ) ) RFN1_CT ) ) ) 0 ) ( = ( + ( * ( - 1 ) lam17n0 ) ( * ( - 1 ) lam17n4 ) ( * Nl5arg11 lam17n15 ) ( * Nl5arg12 lam17n16 ) ( - ( - RFN1_arg1 ) ) ) 0 ) ( = ( + ( * ( - 1 ) lam17n8 ) ( * Nl5arg21 lam17n15 ) ( * Nl5arg22 lam17n16 ) ( - ( - RFN1_arg2 ) ) ) 0 ) ( = ( + ( * ( - 1 ) lam17n5 ) ( * ( - 1 ) lam17n6 ) ( * ( - 1 ) lam17n9 ) ( * ( - 1 ) lam17n12 ) ( * Nl5arg31 lam17n15 ) ( * Nl5arg32 lam17n16 ) ( - ( - RFN1_arg3 ) ) ) 0 ) ( = ( + ( * ( - 1 ) lam17n1 ) ( * ( - 1 ) lam17n7 ) ( * ( - 1 ) lam17n10 ) ( * ( - 1 ) lam17n11 ) ( * Nl5arg41 lam17n15 ) ( * Nl5arg42 lam17n16 ) ( - ( - RFN1_arg4 ) ) ) 0 ) ( = ( + ( * ( - 1 ) lam17n2 ) ( * 1 lam17n4 ) ( - ( + 0 ( * RFN1_arg1 1 ) ) ) ) 0 ) ( = ( + ( * 1 lam17n5 ) ( * 1 lam17n10 ) ( * ( - 1 ) lam17n13 ) ( - ( + 0 ( * RFN1_arg2 1 ) ) ) ) 0 ) ( = ( + ( * 1 lam17n6 ) ( * 1 lam17n11 ) ( * ( - 1 ) lam17n14 ) ( - ( + 0 ( * RFN1_arg3 1 ) ) ) ) 0 ) ( = ( + ( * ( - 1 ) lam17n3 ) ( * 1 lam17n7 ) ( * 1 lam17n9 ) ( - ( + 0 ( * RFN1_arg4 1 ) ) ) ) 0 ) ) ( and ( and ( >= lam15n0 0 ) ( >= lam15n1 0 ) ( >= lam15n2 0 ) ( >= lam15n3 0 ) ( >= lam15n4 0 ) ( >= lam15n5 0 ) ( >= lam15n6 0 ) ( >= lam15n7 0 ) ( >= lam15n8 0 ) ( >= lam15n9 0 ) ( >= lam15n10 0 ) ( >= lam15n11 0 ) ( >= lam15n12 0 ) ( >= lam15n13 0 ) ( >= lam15n14 0 ) ( >= lam15n15 0 ) ( >= lam15n16 0 ) ( > ( + ( * 1 lam15n0 ) ( * 1 lam15n1 ) ( * 1 lam15n2 ) ( * 1 lam15n3 ) ( * 2 lam15n8 ) ( * 2 lam15n9 ) ( * ( - 2 ) lam15n10 ) ( * ( - 2 ) lam15n11 ) ( * 3 lam15n12 ) ( * 3 lam15n13 ) ( * 3 lam15n14 ) ( * Nl5CT1 lam15n15 ) ( * Nl5CT2 lam15n16 ) ( - 1 ( - RFN1_CT ) ) ) 0 ) ( = ( + ( * ( - 1 ) lam15n0 ) ( * ( - 1 ) lam15n4 ) ( * Nl5arg11 lam15n15 ) ( * Nl5arg12 lam15n16 ) ( - ( - RFN1_arg1 ) ) ) 0 ) ( = ( + ( * ( - 1 ) lam15n8 ) ( * Nl5arg21 lam15n15 ) ( * Nl5arg22 lam15n16 ) ( - ( - RFN1_arg2 ) ) ) 0 ) ( = ( + ( * ( - 1 ) lam15n5 ) ( * ( - 1 ) lam15n6 ) ( * ( - 1 ) lam15n9 ) ( * ( - 1 ) lam15n12 ) ( * Nl5arg31 lam15n15 ) ( * Nl5arg32 lam15n16 ) ( - ( - RFN1_arg3 ) ) ) 0 ) ( = ( + ( * ( - 1 ) lam15n1 ) ( * ( - 1 ) lam15n7 ) ( * ( - 1 ) lam15n10 ) ( * ( - 1 ) lam15n11 ) ( * Nl5arg41 lam15n15 ) ( * Nl5arg42 lam15n16 ) ( - ( - RFN1_arg4 ) ) ) 0 ) ( = ( + ( * ( - 1 ) lam15n2 ) ( * 1 lam15n4 ) ) 0 ) ( = ( + ( * 1 lam15n5 ) ( * 1 lam15n10 ) ( * ( - 1 ) lam15n13 ) ) 0 ) ( = ( + ( * 1 lam15n6 ) ( * 1 lam15n11 ) ( * ( - 1 ) lam15n14 ) ) 0 ) ( = ( + ( * ( - 1 ) lam15n3 ) ( * 1 lam15n7 ) ( * 1 lam15n9 ) ) 0 ) ) ( and ( >= lam16n0 0 ) ( >= lam16n1 0 ) ( >= lam16n2 0 ) ( >= lam16n3 0 ) ( >= lam16n4 0 ) ( >= lam16n5 0 ) ( >= lam16n6 0 ) ( >= lam16n7 0 ) ( >= lam16n8 0 ) ( >= lam16n9 0 ) ( >= lam16n10 0 ) ( >= lam16n11 0 ) ( >= lam16n12 0 ) ( >= lam16n13 0 ) ( >= lam16n14 0 ) ( >= lam16n15 0 ) ( >= lam16n16 0 ) ( > ( + ( * 1 lam16n0 ) ( * 1 lam16n1 ) ( * 1 lam16n2 ) ( * 1 lam16n3 ) ( * 2 lam16n8 ) ( * 2 lam16n9 ) ( * ( - 2 ) lam16n10 ) ( * ( - 2 ) lam16n11 ) ( * 3 lam16n12 ) ( * 3 lam16n13 ) ( * 3 lam16n14 ) ( * Nl5CT1 lam16n15 ) ( * Nl5CT2 lam16n16 ) ( - 1 ( + ( - ( + ( + ( + ( + RFN1_CT ( * RFN1_arg1 0 ) ) ( * RFN1_arg2 0 ) ) ( * RFN1_arg3 0 ) ) ( * RFN1_arg4 0 ) ) RFN1_CT ) 1 ) ) ) 0 ) ( = ( + ( * ( - 1 ) lam16n0 ) ( * ( - 1 ) lam16n4 ) ( * Nl5arg11 lam16n15 ) ( * Nl5arg12 lam16n16 ) ( - ( - RFN1_arg1 ) ) ) 0 ) ( = ( + ( * ( - 1 ) lam16n8 ) ( * Nl5arg21 lam16n15 ) ( * Nl5arg22 lam16n16 ) ( - ( - RFN1_arg2 ) ) ) 0 ) ( = ( + ( * ( - 1 ) lam16n5 ) ( * ( - 1 ) lam16n6 ) ( * ( - 1 ) lam16n9 ) ( * ( - 1 ) lam16n12 ) ( * Nl5arg31 lam16n15 ) ( * Nl5arg32 lam16n16 ) ( - ( - RFN1_arg3 ) ) ) 0 ) ( = ( + ( * ( - 1 ) lam16n1 ) ( * ( - 1 ) lam16n7 ) ( * ( - 1 ) lam16n10 ) ( * ( - 1 ) lam16n11 ) ( * Nl5arg41 lam16n15 ) ( * Nl5arg42 lam16n16 ) ( - ( - RFN1_arg4 ) ) ) 0 ) ( = ( + ( * ( - 1 ) lam16n2 ) ( * 1 lam16n4 ) ( - ( + 0 ( * RFN1_arg1 1 ) ) ) ) 0 ) ( = ( + ( * 1 lam16n5 ) ( * 1 lam16n10 ) ( * ( - 1 ) lam16n13 ) ( - ( + 0 ( * RFN1_arg2 1 ) ) ) ) 0 ) ( = ( + ( * 1 lam16n6 ) ( * 1 lam16n11 ) ( * ( - 1 ) lam16n14 ) ( - ( + 0 ( * RFN1_arg3 1 ) ) ) ) 0 ) ( = ( + ( * ( - 1 ) lam16n3 ) ( * 1 lam16n7 ) ( * 1 lam16n9 ) ( - ( + 0 ( * RFN1_arg4 1 ) ) ) ) 0 ) ) ) ) ( and ( >= lam14n0 0 ) ( >= lam14n1 0 ) ( >= lam14n2 0 ) ( >= lam14n3 0 ) ( >= lam14n4 0 ) ( >= lam14n5 0 ) ( >= lam14n6 0 ) ( >= lam14n7 0 ) ( >= lam14n8 0 ) ( >= lam14n9 0 ) ( >= lam14n10 0 ) ( >= lam14n11 0 ) ( >= lam14n12 0 ) ( >= lam14n13 0 ) ( >= lam14n14 0 ) ( >= lam14n15 0 ) ( >= lam14n16 0 ) ( > ( + ( * 1 lam14n0 ) ( * 1 lam14n1 ) ( * 1 lam14n2 ) ( * 1 lam14n3 ) ( * 2 lam14n8 ) ( * 2 lam14n9 ) ( * ( - 2 ) lam14n10 ) ( * ( - 2 ) lam14n11 ) ( * 3 lam14n12 ) ( * 3 lam14n13 ) ( * 3 lam14n14 ) ( * Nl5CT1 lam14n15 ) ( * Nl5CT2 lam14n16 ) ( - 1 ) ) 0 ) ( = ( + ( * ( - 1 ) lam14n0 ) ( * ( - 1 ) lam14n4 ) ( * Nl5arg11 lam14n15 ) ( * Nl5arg12 lam14n16 ) ) 0 ) ( = ( + ( * ( - 1 ) lam14n8 ) ( * Nl5arg21 lam14n15 ) ( * Nl5arg22 lam14n16 ) ) 0 ) ( = ( + ( * ( - 1 ) lam14n5 ) ( * ( - 1 ) lam14n6 ) ( * ( - 1 ) lam14n9 ) ( * ( - 1 ) lam14n12 ) ( * Nl5arg31 lam14n15 ) ( * Nl5arg32 lam14n16 ) ) 0 ) ( = ( + ( * ( - 1 ) lam14n1 ) ( * ( - 1 ) lam14n7 ) ( * ( - 1 ) lam14n10 ) ( * ( - 1 ) lam14n11 ) ( * Nl5arg41 lam14n15 ) ( * Nl5arg42 lam14n16 ) ) 0 ) ( = ( + ( * ( - 1 ) lam14n2 ) ( * 1 lam14n4 ) ) 0 ) ( = ( + ( * 1 lam14n5 ) ( * 1 lam14n10 ) ( * ( - 1 ) lam14n13 ) ) 0 ) ( = ( + ( * 1 lam14n6 ) ( * 1 lam14n11 ) ( * ( - 1 ) lam14n14 ) ) 0 ) ( = ( + ( * ( - 1 ) lam14n3 ) ( * 1 lam14n7 ) ( * 1 lam14n9 ) ) 0 ) ) ))
(check-sat)
(exit)
